Instance0
Objective;Best_Integer;Best_Bound
262.6193;639.6325;262.6193
289.1734;639.6325;Disjcuts:7
308.4468;462.8177;Disjcuts:8
317.3328;462.8177;Disjcuts:7
320.0307;462.8177;Disjcuts:6
325.7411;415.0905;Disjcuts:8
329.7083;415.0905;Disjcuts:4
330.8915;415.0905;Disjcuts:1
330.8915;415.0905;332.1561
CPXPARAM_MIP_Cuts_Disjunctive 8
Instance1
Objective;Best_Integer;Best_Bound
integral;262.6193;262.6193
CPXPARAM_MIP_Cuts_Disjunctive 0
Instance2
Objective;Best_Integer;Best_Bound
269.4766;639.6325;269.4766
279.5547;639.6325;Disjcuts:5
302.6385;583.4780;Disjcuts:5
316.1751;501.1637;Disjcuts:8
319.6664;428.5759;Disjcuts:5
329.7787;428.5759;Disjcuts:7
331.4686;415.0905;Disjcuts:1
332.1144;415.0905;Disjcuts:3
332.1462;415.0905;Disjcuts:1
332.3793;415.0905;Disjcuts:2
333.5541;415.0905;333.5679
CPXPARAM_MIP_Cuts_Disjunctive 12
Instance3
Objective;Best_Integer;Best_Bound
314.8220;883.5817;314.8220
integral;314.8876;Disjcuts:1
cutoff;314.8876;40
CPXPARAM_MIP_Cuts_Disjunctive 1
Instance4
Objective;Best_Integer;Best_Bound
405.5114;634.5912;405.5114
410.0944;634.5912;Disjcuts:7
416.4981;455.9855;Disjcuts:8
421.7111;455.9855;Disjcuts:6
422.3342;455.9855;Disjcuts:5
424.0857;455.9855;Disjcuts:4
424.1745;449.4074;424.1766
CPXPARAM_MIP_Cuts_Disjunctive 7
Instance5
Objective;Best_Integer;Best_Bound
405.5114;693.8542;405.5114
integral;405.9187;405.9187
CPXPARAM_MIP_Cuts_Disjunctive 0
Instance6
Objective;Best_Integer;Best_Bound
405.5114;648.3061;405.5114
412.7793;648.3061;Disjcuts:7
415.7238;449.4074;Disjcuts:9
418.4862;449.4074;Disjcuts:8
421.1799;449.4074;Disjcuts:5
421.5794;441.1644;Disjcuts:7
422.5809;441.1644;422.6010
CPXPARAM_MIP_Cuts_Disjunctive 8
Instance7
Objective;Best_Integer;Best_Bound
integral;425.0746;425.0746
CPXPARAM_MIP_Cuts_Disjunctive 0
Instance8
Objective;Best_Integer;Best_Bound
484.8467;648.8417;484.8467
509.4989;648.8417;Disjcuts:7
517.7960;648.8417;Disjcuts:8
527.8600;648.8417;Disjcuts:7
534.3335;607.3004;Disjcuts:6
535.7003;607.3004;Disjcuts:8
535.7003;607.3004;535.7817
CPXPARAM_MIP_Cuts_Disjunctive 7
Instance9
Objective;Best_Integer;Best_Bound
integral;484.8467;484.8467
CPXPARAM_MIP_Cuts_Disjunctive 0
Instance10
Objective;Best_Integer;Best_Bound
498.6071;845.6683;498.6071
504.2498;697.1349;Disjcuts:5
518.6022;648.8417;Disjcuts:7
529.8797;631.7880;Disjcuts:7
534.7204;631.7880;Disjcuts:9
535.0806;631.7880;Disjcuts:4
536.9570;607.3004;Disjcuts:1
537.3530;607.3004;539.5857
CPXPARAM_MIP_Cuts_Disjunctive 8
Instance11
Objective;Best_Integer;Best_Bound
integral;561.1585;561.1585
CPXPARAM_MIP_Cuts_Disjunctive 0
Instance12
Objective;Best_Integer;Best_Bound
386.2283;534.4657;386.2283
389.9685;534.4657;Disjcuts:6
398.7990;526.4159;Disjcuts:9
402.5173;521.2586;Disjcuts:8
411.1522;521.2586;Disjcuts:8
413.4509;474.3633;Disjcuts:7
414.0777;474.3633;Disjcuts:2
414.0777;474.3633;414.9047
CPXPARAM_MIP_Cuts_Disjunctive 9
Instance13
Objective;Best_Integer;Best_Bound
integral;389.1110;389.1110
CPXPARAM_MIP_Cuts_Disjunctive 0
Instance14
Objective;Best_Integer;Best_Bound
386.2283;534.4657;386.2283
389.5987;534.4657;Disjcuts:6
397.3879;526.4159;Disjcuts:8
403.6699;518.5366;Disjcuts:8
405.7515;488.8119;Disjcuts:7
409.7220;474.3633;Disjcuts:8
409.7845;474.3633;Disjcuts:1
409.7978;474.3633;Disjcuts:1
409.7978;465.9177;410.1598
CPXPARAM_MIP_Cuts_Disjunctive 7
Instance15
Objective;Best_Integer;Best_Bound
integral;410.1756;410.1756
CPXPARAM_MIP_Cuts_Disjunctive 0
Instance16
Objective;Best_Integer;Best_Bound
417.5617;482.5302;417.5617
417.5617;465.0575;417.5617
CPXPARAM_MIP_Cuts_Disjunctive 0
Instance17
Objective;Best_Integer;Best_Bound
integral;425.9937;425.9937
CPXPARAM_MIP_Cuts_Disjunctive 0
Instance18
Objective;Best_Integer;Best_Bound
423.0032;673.4267;423.0032
423.4844;591.6412;Disjcuts:3
427.3259;465.5226;Disjcuts:7
429.3885;465.5226;Disjcuts:6
430.7105;465.5226;Disjcuts:7
431.5002;465.5226;Disjcuts:4
431.5002;465.5226;431.7805
CPXPARAM_MIP_Cuts_Disjunctive 4
Instance19
Objective;Best_Integer;Best_Bound
integral;446.2379;446.2379
CPXPARAM_MIP_Cuts_Disjunctive 0
Instance20
Objective;Best_Integer;Best_Bound
283.8374;499.7053;283.8374
287.2278;335.4671;Disjcuts:6
291.6172;335.4671;Disjcuts:6
295.1982;335.4671;Disjcuts:6
296.4797;315.2212;Disjcuts:5
297.4657;315.2212;Disjcuts:4
297.5608;315.2212;297.6790
CPXPARAM_MIP_Cuts_Disjunctive 10
Instance21
Objective;Best_Integer;Best_Bound
integral;283.8374;283.8374
CPXPARAM_MIP_Cuts_Disjunctive 0
Instance22
Objective;Best_Integer;Best_Bound
286.9244;502.7786;286.9244
295.4217;406.3795;Disjcuts:6
299.7591;392.9654;Disjcuts:6
302.4445;392.9654;Disjcuts:6
306.3200;391.3528;Disjcuts:8
307.2230;315.4732;Disjcuts:3
307.3179;315.4732;Disjcuts:1
307.5729;315.4732;Disjcuts:1
312.3652;315.4732;312.4240
CPXPARAM_MIP_Cuts_Disjunctive 7
Instance23
Objective;Best_Integer;Best_Bound
integral;293.4740;293.4740
CPXPARAM_MIP_Cuts_Disjunctive 0
Instance24
Objective;Best_Integer;Best_Bound
363.2658;473.7492;363.2658
366.2512;458.3613;Disjcuts:7
368.5691;444.0143;Disjcuts:8
370.0380;399.6484;Disjcuts:5
374.0049;399.6484;Disjcuts:5
374.9380;399.6484;Disjcuts:3
376.1039;399.6484;Disjcuts:3
376.2854;399.6484;378.0820
CPXPARAM_MIP_Cuts_Disjunctive 9
Instance25
Objective;Best_Integer;Best_Bound
integral;372.4575;372.4575
CPXPARAM_MIP_Cuts_Disjunctive 0
Instance26
Objective;Best_Integer;Best_Bound
372.1627;476.4585;372.1627
377.6577;476.4585;Disjcuts:6
380.9717;404.2019;Disjcuts:6
382.5603;404.2019;Disjcuts:6
382.7681;399.6484;Disjcuts:6
383.4955;399.6484;Disjcuts:5
383.5077;399.6484;383.9926
CPXPARAM_MIP_Cuts_Disjunctive 6
Instance27
Objective;Best_Integer;Best_Bound
integral;385.0255;385.0255
CPXPARAM_MIP_Cuts_Disjunctive 0
Instance28
Objective;Best_Integer;Best_Bound
601.4591;872.5219;601.4591
603.7638;737.8283;Disjcuts:3
610.2878;685.4619;Disjcuts:8
618.7020;685.4619;Disjcuts:8
621.0026;652.5589;Disjcuts:2
625.5260;652.5589;Disjcuts:3
626.1855;652.5589;Disjcuts:2
628.4947;652.5589;629.0179
CPXPARAM_MIP_Cuts_Disjunctive 7
Instance29
Objective;Best_Integer;Best_Bound
integral;596.9704;596.9704
CPXPARAM_MIP_Cuts_Disjunctive 0
Instance30
Objective;Best_Integer;Best_Bound
601.4591;877.2624;601.4591
603.7062;696.2579;Disjcuts:4
611.9187;696.2579;Disjcuts:9
620.7341;696.2579;Disjcuts:6
624.5223;652.5589;Disjcuts:6
627.7688;652.5589;Disjcuts:6
629.4778;652.5589;Disjcuts:2
629.6575;652.5589;Disjcuts:1
cutoff;629.6575;109
CPXPARAM_MIP_Cuts_Disjunctive 7
Instance31
Objective;Best_Integer;Best_Bound
integral;601.4591;601.4591
CPXPARAM_MIP_Cuts_Disjunctive 0
Instance32
Objective;Best_Integer;Best_Bound
285.1772;538.6067;285.1772
296.6709;527.4518;Disjcuts:6
312.5423;398.4261;Disjcuts:8
314.8579;392.1998;Disjcuts:4
327.4205;392.1998;Disjcuts:6
328.9376;392.1998;Disjcuts:5
334.9294;392.1998;Disjcuts:1
337.4451;392.1998;337.6849
CPXPARAM_MIP_Cuts_Disjunctive 5
Instance33
Objective;Best_Integer;Best_Bound
304.9439;671.2898;304.9439
integral;304.9870;304.9870
CPXPARAM_MIP_Cuts_Disjunctive 0
Instance34
Objective;Best_Integer;Best_Bound
304.9439;548.6165;304.9439
307.4910;522.3973;Disjcuts:6
312.9510;462.2964;Disjcuts:5
321.1952;398.4261;Disjcuts:9
328.6521;392.1998;Disjcuts:6
340.2530;392.1998;Disjcuts:6
341.6473;392.1998;341.9377
CPXPARAM_MIP_Cuts_Disjunctive 4
Instance35
Objective;Best_Integer;Best_Bound
integral;363.5184;363.5184
CPXPARAM_MIP_Cuts_Disjunctive 0
Instance36
Objective;Best_Integer;Best_Bound
431.0120;643.3001;431.0120
433.9774;591.9356;Disjcuts:6
437.7576;586.8010;Disjcuts:8
442.7135;586.8010;Disjcuts:8
444.2550;511.1136;Disjcuts:5
445.5786;511.1136;Disjcuts:5
445.9624;511.1136;Disjcuts:3
446.1205;511.1136;Disjcuts:2
446.2122;511.1136;Disjcuts:1
446.3495;497.5652;446.4221
CPXPARAM_MIP_Cuts_Disjunctive 10
Instance37
Objective;Best_Integer;Best_Bound
integral;431.0120;431.0120
CPXPARAM_MIP_Cuts_Disjunctive 0
Instance38
Objective;Best_Integer;Best_Bound
431.2487;644.4799;431.2487
434.3745;591.9356;Disjcuts:4
439.7582;591.9356;Disjcuts:10
444.3284;534.0033;Disjcuts:7
447.8723;513.0512;Disjcuts:7
450.1483;513.0512;Disjcuts:4
450.1942;513.0512;Disjcuts:1
451.0744;497.5652;451.4692
CPXPARAM_MIP_Cuts_Disjunctive 10
Instance39
Objective;Best_Integer;Best_Bound
cutoff;451.8439;34
cutoff;451.8439;34
CPXPARAM_MIP_Cuts_Disjunctive 0
